NAME : 10_3_3_1_(02).dat
COMMENT : Henke, Speranza, Wäscher, 2015
TYPE : MCVRP
DIMENSION : 11
EDGE_WEIGHT_TYPE : DISTANCE_MATRIX
CAPACITY : 1000
VEHICLES : 2
PRODUCT TYPES : 3
COMPARTMENTS : 3
NODE_COORD_SECTION
1 50 50
2 91.43 37.01
3 80.78 3.74
4 3.77 61.29
5 82.26 7.84
6 54.29 20.12
7 6.59 94.49
8 99.72 3.95
9 61.59 85.18
10 66.2 50.69
11 34.21 83.7
DEMAND_SECTION
1 0 0 0
2 0 0 14
3 0 107 0
4 0 42 0
5 0 126 0
6 0 0 189
7 0 0 87
8 336 0 0
9 391 0 0
10 0 69 0
11 0 92 0
DEPOT_SECTION
1
EOF